(set-logic QF_LRA)
(declare-fun X0 () Real )
(declare-fun Y0 () Real )
(declare-fun X1 () Real )
(declare-fun Y1 () Real )
(declare-fun X2 () Real )
(declare-fun Y2 () Real )
(declare-fun X3 () Real )
(declare-fun Y3 () Real )
(declare-fun X4 () Real )
(declare-fun Y4 () Real )
(declare-fun X5 () Real )
(declare-fun Y5 () Real )
(declare-fun X6 () Real )
(declare-fun Y6 () Real )
(declare-fun X7 () Real )
(declare-fun Y7 () Real )
(declare-fun X8 () Real )
(declare-fun Y8 () Real )
(declare-fun X9 () Real )
(declare-fun Y9 () Real )
(declare-fun X10 () Real )
(declare-fun Y10 () Real )
(declare-fun X11 () Real )
(declare-fun Y11 () Real )
(declare-fun X12 () Real )
(declare-fun Y12 () Real )
(declare-fun X13 () Real )
(declare-fun Y13 () Real )
(declare-fun X14 () Real )
(declare-fun Y14 () Real )
(declare-fun Z () Real )
(declare-fun k () Real )
(assert (let
(( $goal (>= Z k) ))
(let
((
$phi ( and 
( or ( <= ( + X0 65 ) X1 )  ( <= ( + X1 14 ) X0 )  ( <= ( + Y0 45 ) Y1 )  ( <= ( + Y1 64 ) Y0 )  )
( or ( <= ( + X0 65 ) X2 )  ( <= ( + X2 7 ) X0 )  ( <= ( + Y0 45 ) Y2 )  ( <= ( + Y2 64 ) Y0 )  )
( or ( <= ( + X0 65 ) X3 )  ( <= ( + X3 23 ) X0 )  ( <= ( + Y0 45 ) Y3 )  ( <= ( + Y3 94 ) Y0 )  )
( or ( <= ( + X0 65 ) X4 )  ( <= ( + X4 87 ) X0 )  ( <= ( + Y0 45 ) Y4 )  ( <= ( + Y4 34 ) Y0 )  )
( or ( <= ( + X0 65 ) X5 )  ( <= ( + X5 50 ) X0 )  ( <= ( + Y0 45 ) Y5 )  ( <= ( + Y5 6 ) Y0 )  )
( or ( <= ( + X0 65 ) X6 )  ( <= ( + X6 79 ) X0 )  ( <= ( + Y0 45 ) Y6 )  ( <= ( + Y6 2 ) Y0 )  )
( or ( <= ( + X0 65 ) X7 )  ( <= ( + X7 24 ) X0 )  ( <= ( + Y0 45 ) Y7 )  ( <= ( + Y7 66 ) Y0 )  )
( or ( <= ( + X0 65 ) X8 )  ( <= ( + X8 11 ) X0 )  ( <= ( + Y0 45 ) Y8 )  ( <= ( + Y8 51 ) Y0 )  )
( or ( <= ( + X0 65 ) X9 )  ( <= ( + X9 70 ) X0 )  ( <= ( + Y0 45 ) Y9 )  ( <= ( + Y9 76 ) Y0 )  )
( or ( <= ( + X0 65 ) X10 )  ( <= ( + X10 11 ) X0 )  ( <= ( + Y0 45 ) Y10 )  ( <= ( + Y10 89 ) Y0 )  )
( or ( <= ( + X0 65 ) X11 )  ( <= ( + X11 85 ) X0 )  ( <= ( + Y0 45 ) Y11 )  ( <= ( + Y11 70 ) Y0 )  )
( or ( <= ( + X0 65 ) X12 )  ( <= ( + X12 34 ) X0 )  ( <= ( + Y0 45 ) Y12 )  ( <= ( + Y12 22 ) Y0 )  )
( or ( <= ( + X0 65 ) X13 )  ( <= ( + X13 57 ) X0 )  ( <= ( + Y0 45 ) Y13 )  ( <= ( + Y13 87 ) Y0 )  )
( or ( <= ( + X0 65 ) X14 )  ( <= ( + X14 71 ) X0 )  ( <= ( + Y0 45 ) Y14 )  ( <= ( + Y14 7 ) Y0 )  )
( or ( <= ( + X1 14 ) X2 )  ( <= ( + X2 7 ) X1 )  ( <= ( + Y1 64 ) Y2 )  ( <= ( + Y2 64 ) Y1 )  )
( or ( <= ( + X1 14 ) X3 )  ( <= ( + X3 23 ) X1 )  ( <= ( + Y1 64 ) Y3 )  ( <= ( + Y3 94 ) Y1 )  )
( or ( <= ( + X1 14 ) X4 )  ( <= ( + X4 87 ) X1 )  ( <= ( + Y1 64 ) Y4 )  ( <= ( + Y4 34 ) Y1 )  )
( or ( <= ( + X1 14 ) X5 )  ( <= ( + X5 50 ) X1 )  ( <= ( + Y1 64 ) Y5 )  ( <= ( + Y5 6 ) Y1 )  )
( or ( <= ( + X1 14 ) X6 )  ( <= ( + X6 79 ) X1 )  ( <= ( + Y1 64 ) Y6 )  ( <= ( + Y6 2 ) Y1 )  )
( or ( <= ( + X1 14 ) X7 )  ( <= ( + X7 24 ) X1 )  ( <= ( + Y1 64 ) Y7 )  ( <= ( + Y7 66 ) Y1 )  )
( or ( <= ( + X1 14 ) X8 )  ( <= ( + X8 11 ) X1 )  ( <= ( + Y1 64 ) Y8 )  ( <= ( + Y8 51 ) Y1 )  )
( or ( <= ( + X1 14 ) X9 )  ( <= ( + X9 70 ) X1 )  ( <= ( + Y1 64 ) Y9 )  ( <= ( + Y9 76 ) Y1 )  )
( or ( <= ( + X1 14 ) X10 )  ( <= ( + X10 11 ) X1 )  ( <= ( + Y1 64 ) Y10 )  ( <= ( + Y10 89 ) Y1 )  )
( or ( <= ( + X1 14 ) X11 )  ( <= ( + X11 85 ) X1 )  ( <= ( + Y1 64 ) Y11 )  ( <= ( + Y11 70 ) Y1 )  )
( or ( <= ( + X1 14 ) X12 )  ( <= ( + X12 34 ) X1 )  ( <= ( + Y1 64 ) Y12 )  ( <= ( + Y12 22 ) Y1 )  )
( or ( <= ( + X1 14 ) X13 )  ( <= ( + X13 57 ) X1 )  ( <= ( + Y1 64 ) Y13 )  ( <= ( + Y13 87 ) Y1 )  )
( or ( <= ( + X1 14 ) X14 )  ( <= ( + X14 71 ) X1 )  ( <= ( + Y1 64 ) Y14 )  ( <= ( + Y14 7 ) Y1 )  )
( or ( <= ( + X2 7 ) X3 )  ( <= ( + X3 23 ) X2 )  ( <= ( + Y2 64 ) Y3 )  ( <= ( + Y3 94 ) Y2 )  )
( or ( <= ( + X2 7 ) X4 )  ( <= ( + X4 87 ) X2 )  ( <= ( + Y2 64 ) Y4 )  ( <= ( + Y4 34 ) Y2 )  )
( or ( <= ( + X2 7 ) X5 )  ( <= ( + X5 50 ) X2 )  ( <= ( + Y2 64 ) Y5 )  ( <= ( + Y5 6 ) Y2 )  )
( or ( <= ( + X2 7 ) X6 )  ( <= ( + X6 79 ) X2 )  ( <= ( + Y2 64 ) Y6 )  ( <= ( + Y6 2 ) Y2 )  )
( or ( <= ( + X2 7 ) X7 )  ( <= ( + X7 24 ) X2 )  ( <= ( + Y2 64 ) Y7 )  ( <= ( + Y7 66 ) Y2 )  )
( or ( <= ( + X2 7 ) X8 )  ( <= ( + X8 11 ) X2 )  ( <= ( + Y2 64 ) Y8 )  ( <= ( + Y8 51 ) Y2 )  )
( or ( <= ( + X2 7 ) X9 )  ( <= ( + X9 70 ) X2 )  ( <= ( + Y2 64 ) Y9 )  ( <= ( + Y9 76 ) Y2 )  )
( or ( <= ( + X2 7 ) X10 )  ( <= ( + X10 11 ) X2 )  ( <= ( + Y2 64 ) Y10 )  ( <= ( + Y10 89 ) Y2 )  )
( or ( <= ( + X2 7 ) X11 )  ( <= ( + X11 85 ) X2 )  ( <= ( + Y2 64 ) Y11 )  ( <= ( + Y11 70 ) Y2 )  )
( or ( <= ( + X2 7 ) X12 )  ( <= ( + X12 34 ) X2 )  ( <= ( + Y2 64 ) Y12 )  ( <= ( + Y12 22 ) Y2 )  )
( or ( <= ( + X2 7 ) X13 )  ( <= ( + X13 57 ) X2 )  ( <= ( + Y2 64 ) Y13 )  ( <= ( + Y13 87 ) Y2 )  )
( or ( <= ( + X2 7 ) X14 )  ( <= ( + X14 71 ) X2 )  ( <= ( + Y2 64 ) Y14 )  ( <= ( + Y14 7 ) Y2 )  )
( or ( <= ( + X3 23 ) X4 )  ( <= ( + X4 87 ) X3 )  ( <= ( + Y3 94 ) Y4 )  ( <= ( + Y4 34 ) Y3 )  )
( or ( <= ( + X3 23 ) X5 )  ( <= ( + X5 50 ) X3 )  ( <= ( + Y3 94 ) Y5 )  ( <= ( + Y5 6 ) Y3 )  )
( or ( <= ( + X3 23 ) X6 )  ( <= ( + X6 79 ) X3 )  ( <= ( + Y3 94 ) Y6 )  ( <= ( + Y6 2 ) Y3 )  )
( or ( <= ( + X3 23 ) X7 )  ( <= ( + X7 24 ) X3 )  ( <= ( + Y3 94 ) Y7 )  ( <= ( + Y7 66 ) Y3 )  )
( or ( <= ( + X3 23 ) X8 )  ( <= ( + X8 11 ) X3 )  ( <= ( + Y3 94 ) Y8 )  ( <= ( + Y8 51 ) Y3 )  )
( or ( <= ( + X3 23 ) X9 )  ( <= ( + X9 70 ) X3 )  ( <= ( + Y3 94 ) Y9 )  ( <= ( + Y9 76 ) Y3 )  )
( or ( <= ( + X3 23 ) X10 )  ( <= ( + X10 11 ) X3 )  ( <= ( + Y3 94 ) Y10 )  ( <= ( + Y10 89 ) Y3 )  )
( or ( <= ( + X3 23 ) X11 )  ( <= ( + X11 85 ) X3 )  ( <= ( + Y3 94 ) Y11 )  ( <= ( + Y11 70 ) Y3 )  )
( or ( <= ( + X3 23 ) X12 )  ( <= ( + X12 34 ) X3 )  ( <= ( + Y3 94 ) Y12 )  ( <= ( + Y12 22 ) Y3 )  )
( or ( <= ( + X3 23 ) X13 )  ( <= ( + X13 57 ) X3 )  ( <= ( + Y3 94 ) Y13 )  ( <= ( + Y13 87 ) Y3 )  )
( or ( <= ( + X3 23 ) X14 )  ( <= ( + X14 71 ) X3 )  ( <= ( + Y3 94 ) Y14 )  ( <= ( + Y14 7 ) Y3 )  )
( or ( <= ( + X4 87 ) X5 )  ( <= ( + X5 50 ) X4 )  ( <= ( + Y4 34 ) Y5 )  ( <= ( + Y5 6 ) Y4 )  )
( or ( <= ( + X4 87 ) X6 )  ( <= ( + X6 79 ) X4 )  ( <= ( + Y4 34 ) Y6 )  ( <= ( + Y6 2 ) Y4 )  )
( or ( <= ( + X4 87 ) X7 )  ( <= ( + X7 24 ) X4 )  ( <= ( + Y4 34 ) Y7 )  ( <= ( + Y7 66 ) Y4 )  )
( or ( <= ( + X4 87 ) X8 )  ( <= ( + X8 11 ) X4 )  ( <= ( + Y4 34 ) Y8 )  ( <= ( + Y8 51 ) Y4 )  )
( or ( <= ( + X4 87 ) X9 )  ( <= ( + X9 70 ) X4 )  ( <= ( + Y4 34 ) Y9 )  ( <= ( + Y9 76 ) Y4 )  )
( or ( <= ( + X4 87 ) X10 )  ( <= ( + X10 11 ) X4 )  ( <= ( + Y4 34 ) Y10 )  ( <= ( + Y10 89 ) Y4 )  )
( or ( <= ( + X4 87 ) X11 )  ( <= ( + X11 85 ) X4 )  ( <= ( + Y4 34 ) Y11 )  ( <= ( + Y11 70 ) Y4 )  )
( or ( <= ( + X4 87 ) X12 )  ( <= ( + X12 34 ) X4 )  ( <= ( + Y4 34 ) Y12 )  ( <= ( + Y12 22 ) Y4 )  )
( or ( <= ( + X4 87 ) X13 )  ( <= ( + X13 57 ) X4 )  ( <= ( + Y4 34 ) Y13 )  ( <= ( + Y13 87 ) Y4 )  )
( or ( <= ( + X4 87 ) X14 )  ( <= ( + X14 71 ) X4 )  ( <= ( + Y4 34 ) Y14 )  ( <= ( + Y14 7 ) Y4 )  )
( or ( <= ( + X5 50 ) X6 )  ( <= ( + X6 79 ) X5 )  ( <= ( + Y5 6 ) Y6 )  ( <= ( + Y6 2 ) Y5 )  )
( or ( <= ( + X5 50 ) X7 )  ( <= ( + X7 24 ) X5 )  ( <= ( + Y5 6 ) Y7 )  ( <= ( + Y7 66 ) Y5 )  )
( or ( <= ( + X5 50 ) X8 )  ( <= ( + X8 11 ) X5 )  ( <= ( + Y5 6 ) Y8 )  ( <= ( + Y8 51 ) Y5 )  )
( or ( <= ( + X5 50 ) X9 )  ( <= ( + X9 70 ) X5 )  ( <= ( + Y5 6 ) Y9 )  ( <= ( + Y9 76 ) Y5 )  )
( or ( <= ( + X5 50 ) X10 )  ( <= ( + X10 11 ) X5 )  ( <= ( + Y5 6 ) Y10 )  ( <= ( + Y10 89 ) Y5 )  )
( or ( <= ( + X5 50 ) X11 )  ( <= ( + X11 85 ) X5 )  ( <= ( + Y5 6 ) Y11 )  ( <= ( + Y11 70 ) Y5 )  )
( or ( <= ( + X5 50 ) X12 )  ( <= ( + X12 34 ) X5 )  ( <= ( + Y5 6 ) Y12 )  ( <= ( + Y12 22 ) Y5 )  )
( or ( <= ( + X5 50 ) X13 )  ( <= ( + X13 57 ) X5 )  ( <= ( + Y5 6 ) Y13 )  ( <= ( + Y13 87 ) Y5 )  )
( or ( <= ( + X5 50 ) X14 )  ( <= ( + X14 71 ) X5 )  ( <= ( + Y5 6 ) Y14 )  ( <= ( + Y14 7 ) Y5 )  )
( or ( <= ( + X6 79 ) X7 )  ( <= ( + X7 24 ) X6 )  ( <= ( + Y6 2 ) Y7 )  ( <= ( + Y7 66 ) Y6 )  )
( or ( <= ( + X6 79 ) X8 )  ( <= ( + X8 11 ) X6 )  ( <= ( + Y6 2 ) Y8 )  ( <= ( + Y8 51 ) Y6 )  )
( or ( <= ( + X6 79 ) X9 )  ( <= ( + X9 70 ) X6 )  ( <= ( + Y6 2 ) Y9 )  ( <= ( + Y9 76 ) Y6 )  )
( or ( <= ( + X6 79 ) X10 )  ( <= ( + X10 11 ) X6 )  ( <= ( + Y6 2 ) Y10 )  ( <= ( + Y10 89 ) Y6 )  )
( or ( <= ( + X6 79 ) X11 )  ( <= ( + X11 85 ) X6 )  ( <= ( + Y6 2 ) Y11 )  ( <= ( + Y11 70 ) Y6 )  )
( or ( <= ( + X6 79 ) X12 )  ( <= ( + X12 34 ) X6 )  ( <= ( + Y6 2 ) Y12 )  ( <= ( + Y12 22 ) Y6 )  )
( or ( <= ( + X6 79 ) X13 )  ( <= ( + X13 57 ) X6 )  ( <= ( + Y6 2 ) Y13 )  ( <= ( + Y13 87 ) Y6 )  )
( or ( <= ( + X6 79 ) X14 )  ( <= ( + X14 71 ) X6 )  ( <= ( + Y6 2 ) Y14 )  ( <= ( + Y14 7 ) Y6 )  )
( or ( <= ( + X7 24 ) X8 )  ( <= ( + X8 11 ) X7 )  ( <= ( + Y7 66 ) Y8 )  ( <= ( + Y8 51 ) Y7 )  )
( or ( <= ( + X7 24 ) X9 )  ( <= ( + X9 70 ) X7 )  ( <= ( + Y7 66 ) Y9 )  ( <= ( + Y9 76 ) Y7 )  )
( or ( <= ( + X7 24 ) X10 )  ( <= ( + X10 11 ) X7 )  ( <= ( + Y7 66 ) Y10 )  ( <= ( + Y10 89 ) Y7 )  )
( or ( <= ( + X7 24 ) X11 )  ( <= ( + X11 85 ) X7 )  ( <= ( + Y7 66 ) Y11 )  ( <= ( + Y11 70 ) Y7 )  )
( or ( <= ( + X7 24 ) X12 )  ( <= ( + X12 34 ) X7 )  ( <= ( + Y7 66 ) Y12 )  ( <= ( + Y12 22 ) Y7 )  )
( or ( <= ( + X7 24 ) X13 )  ( <= ( + X13 57 ) X7 )  ( <= ( + Y7 66 ) Y13 )  ( <= ( + Y13 87 ) Y7 )  )
( or ( <= ( + X7 24 ) X14 )  ( <= ( + X14 71 ) X7 )  ( <= ( + Y7 66 ) Y14 )  ( <= ( + Y14 7 ) Y7 )  )
( or ( <= ( + X8 11 ) X9 )  ( <= ( + X9 70 ) X8 )  ( <= ( + Y8 51 ) Y9 )  ( <= ( + Y9 76 ) Y8 )  )
( or ( <= ( + X8 11 ) X10 )  ( <= ( + X10 11 ) X8 )  ( <= ( + Y8 51 ) Y10 )  ( <= ( + Y10 89 ) Y8 )  )
( or ( <= ( + X8 11 ) X11 )  ( <= ( + X11 85 ) X8 )  ( <= ( + Y8 51 ) Y11 )  ( <= ( + Y11 70 ) Y8 )  )
( or ( <= ( + X8 11 ) X12 )  ( <= ( + X12 34 ) X8 )  ( <= ( + Y8 51 ) Y12 )  ( <= ( + Y12 22 ) Y8 )  )
( or ( <= ( + X8 11 ) X13 )  ( <= ( + X13 57 ) X8 )  ( <= ( + Y8 51 ) Y13 )  ( <= ( + Y13 87 ) Y8 )  )
( or ( <= ( + X8 11 ) X14 )  ( <= ( + X14 71 ) X8 )  ( <= ( + Y8 51 ) Y14 )  ( <= ( + Y14 7 ) Y8 )  )
( or ( <= ( + X9 70 ) X10 )  ( <= ( + X10 11 ) X9 )  ( <= ( + Y9 76 ) Y10 )  ( <= ( + Y10 89 ) Y9 )  )
( or ( <= ( + X9 70 ) X11 )  ( <= ( + X11 85 ) X9 )  ( <= ( + Y9 76 ) Y11 )  ( <= ( + Y11 70 ) Y9 )  )
( or ( <= ( + X9 70 ) X12 )  ( <= ( + X12 34 ) X9 )  ( <= ( + Y9 76 ) Y12 )  ( <= ( + Y12 22 ) Y9 )  )
( or ( <= ( + X9 70 ) X13 )  ( <= ( + X13 57 ) X9 )  ( <= ( + Y9 76 ) Y13 )  ( <= ( + Y13 87 ) Y9 )  )
( or ( <= ( + X9 70 ) X14 )  ( <= ( + X14 71 ) X9 )  ( <= ( + Y9 76 ) Y14 )  ( <= ( + Y14 7 ) Y9 )  )
( or ( <= ( + X10 11 ) X11 )  ( <= ( + X11 85 ) X10 )  ( <= ( + Y10 89 ) Y11 )  ( <= ( + Y11 70 ) Y10 )  )
( or ( <= ( + X10 11 ) X12 )  ( <= ( + X12 34 ) X10 )  ( <= ( + Y10 89 ) Y12 )  ( <= ( + Y12 22 ) Y10 )  )
( or ( <= ( + X10 11 ) X13 )  ( <= ( + X13 57 ) X10 )  ( <= ( + Y10 89 ) Y13 )  ( <= ( + Y13 87 ) Y10 )  )
( or ( <= ( + X10 11 ) X14 )  ( <= ( + X14 71 ) X10 )  ( <= ( + Y10 89 ) Y14 )  ( <= ( + Y14 7 ) Y10 )  )
( or ( <= ( + X11 85 ) X12 )  ( <= ( + X12 34 ) X11 )  ( <= ( + Y11 70 ) Y12 )  ( <= ( + Y12 22 ) Y11 )  )
( or ( <= ( + X11 85 ) X13 )  ( <= ( + X13 57 ) X11 )  ( <= ( + Y11 70 ) Y13 )  ( <= ( + Y13 87 ) Y11 )  )
( or ( <= ( + X11 85 ) X14 )  ( <= ( + X14 71 ) X11 )  ( <= ( + Y11 70 ) Y14 )  ( <= ( + Y14 7 ) Y11 )  )
( or ( <= ( + X12 34 ) X13 )  ( <= ( + X13 57 ) X12 )  ( <= ( + Y12 22 ) Y13 )  ( <= ( + Y13 87 ) Y12 )  )
( or ( <= ( + X12 34 ) X14 )  ( <= ( + X14 71 ) X12 )  ( <= ( + Y12 22 ) Y14 )  ( <= ( + Y14 7 ) Y12 )  )
( or ( <= ( + X13 57 ) X14 )  ( <= ( + X14 71 ) X13 )  ( <= ( + Y13 87 ) Y14 )  ( <= ( + Y14 7 ) Y13 )  )
( >= X0 0)
( <= ( + X0 65) Z)
( >= Y0 0)
( <= ( + Y0 45 ) 100)
( >= X1 0)
( <= ( + X1 14) Z)
( >= Y1 0)
( <= ( + Y1 64 ) 100)
( >= X2 0)
( <= ( + X2 7) Z)
( >= Y2 0)
( <= ( + Y2 64 ) 100)
( >= X3 0)
( <= ( + X3 23) Z)
( >= Y3 0)
( <= ( + Y3 94 ) 100)
( >= X4 0)
( <= ( + X4 87) Z)
( >= Y4 0)
( <= ( + Y4 34 ) 100)
( >= X5 0)
( <= ( + X5 50) Z)
( >= Y5 0)
( <= ( + Y5 6 ) 100)
( >= X6 0)
( <= ( + X6 79) Z)
( >= Y6 0)
( <= ( + Y6 2 ) 100)
( >= X7 0)
( <= ( + X7 24) Z)
( >= Y7 0)
( <= ( + Y7 66 ) 100)
( >= X8 0)
( <= ( + X8 11) Z)
( >= Y8 0)
( <= ( + Y8 51 ) 100)
( >= X9 0)
( <= ( + X9 70) Z)
( >= Y9 0)
( <= ( + Y9 76 ) 100)
( >= X10 0)
( <= ( + X10 11) Z)
( >= Y10 0)
( <= ( + Y10 89 ) 100)
( >= X11 0)
( <= ( + X11 85) Z)
( >= Y11 0)
( <= ( + Y11 70 ) 100)
( >= X12 0)
( <= ( + X12 34) Z)
( >= Y12 0)
( <= ( + Y12 22 ) 100)
( >= X13 0)
( <= ( + X13 57) Z)
( >= Y13 0)
( <= ( + Y13 87 ) 100)
( >= X14 0)
( <= ( + X14 71) Z)
( >= Y14 0)
( <= ( + Y14 7 ) 100)
) )
)(=> $phi $goal))))